letting n =  10
letting blocks =  [[1, 1], [1, 4], [1, 5], [1, 7], [1, 8], [1, 10], [2, 3], [2, 4], [2, 5], [2, 6], [2, 8], [2, 10], [3, 2], [3, 3], [3, 4], [3, 8], [3, 9], [4, 1], [4, 2], [4, 3], [4, 8], [4, 9], [4, 10], [5, 3], [5, 4], [5, 5], [5, 6], [5, 7], [5, 10], [6, 1], [6, 5], [6, 6], [6, 7], [6, 9], [7, 1], [7, 2], [7, 3], [7, 5], [7, 6], [7, 7], [8, 2], [8, 5], [8, 6], [8, 7], [8, 8], [8, 10], [9, 1], [9, 2], [9, 3], [9, 6], [9, 8], [9, 10], [10, 1], [10, 4], [10, 7], [10, 9]]
